100	1
0 164
0 159
0 196
0 92
0 80
0 178
0 145
0 193
0 127
0 45
0 21
0 96
0 151
0 63
0 80
0 102
0 190
0 21
0 144
0 143
0 136
0 177
0 75
0 177
0 81
0 11
0 96
0 97
0 198
0 85
0 57
0 93
0 69
0 128
0 36
0 31
0 32
0 194
0 24
0 176
0 84
0 57
0 155
0 178
0 28
0 45
0 14
0 123
0 151
0 192
0 164
0 187
0 62
0 46
0 42
0 6
0 73
0 148
0 114
0 139
0 120
0 11
0 189
0 196
0 121
0 128
0 157
0 85
0 17
0 62
0 102
0 189
0 69
0 14
0 177
0 101
0 40
0 80
0 34
0 18
0 109
0 130
0 192
0 71
0 96
0 67
0 185
0 49
0 180
0 4
0 24
0 1
0 200
0 101
0 82
0 135
0 129
0 70
0 41
0 98
